25° run output:
{
    "Function": "kroB500.tsp",
    "Problem dimension": [
        172,
        306,
        225,
        78,
        445,
        340,
        320,
        312,
        297,
        195,
        51,
        115,
        142,
        68,
        407,
        206,
        186,
        81,
        499,
        9,
        164,
        207,
        113,
        270,
        22,
        170,
        472,
        479,
        109,
        21,
        163,
        119,
        316,
        287,
        471,
        349,
        369,
        156,
        295,
        326,
        361,
        246,
        430,
        47,
        315,
        159,
        352,
        351,
        481,
        446,
        57,
        380,
        215,
        176,
        493,
        100,
        221,
        152,
        366,
        158,
        489,
        394,
        132,
        440,
        284,
        314,
        53,
        338,
        262,
        332,
        208,
        141,
        390,
        93,
        418,
        134,
        360,
        126,
        201,
        432,
        387,
        358,
        414,
        24,
        282,
        281,
        318,
        96,
        128,
        278,
        424,
        169,
        342,
        66,
        189,
        413,
        108,
        91,
        6,
        299,
        3,
        198,
        323,
        173,
        293,
        443,
        160,
        231,
        444,
        339,
        32,
        301,
        455,
        178,
        347,
        334,
        67,
        372,
        300,
        107,
        165,
        374,
        174,
        267,
        30,
        205,
        396,
        427,
        33,
        145,
        185,
        466,
        193,
        58,
        271,
        8,
        54,
        276,
        229,
        379,
        256,
        181,
        304,
        139,
        238,
        125,
        292,
        252,
        89,
        269,
        204,
        286,
        337,
        111,
        44,
        122,
        474,
        55,
        460,
        348,
        388,
        40,
        408,
        34,
        76,
        105,
        161,
        478,
        209,
        373,
        336,
        87,
        492,
        385,
        230,
        2,
        405,
        191,
        321,
        327,
        409,
        305,
        482,
        341,
        310,
        179,
        38,
        473,
        90,
        137,
        48,
        436,
        226,
        395,
        311,
        56,
        384,
        365,
        124,
        463,
        248,
        118,
        260,
        224,
        328,
        168,
        410,
        431,
        10,
        92,
        313,
        469,
        143,
        461,
        275,
        71,
        227,
        290,
        190,
        397,
        475,
        458,
        344,
        162,
        242,
        23,
        322,
        236,
        330,
        251,
        29,
        325,
        389,
        428,
        36,
        356,
        43,
        243,
        498,
        422,
        378,
        135,
        121,
        324,
        404,
        155,
        88,
        116,
        196,
        217,
        28,
        180,
        223,
        211,
        465,
        25,
        151,
        435,
        421,
        7,
        357,
        74,
        255,
        146,
        261,
        386,
        426,
        485,
        245,
        447,
        130,
        451,
        228,
        266,
        237,
        401,
        50,
        85,
        31,
        415,
        298,
        69,
        376,
        319,
        442,
        133,
        273,
        288,
        456,
        274,
        60,
        268,
        459,
        329,
        495,
        420,
        285,
        439,
        70,
        454,
        470,
        433,
        103,
        153,
        406,
        114,
        148,
        283,
        355,
        429,
        171,
        277,
        354,
        4,
        333,
        331,
        294,
        279,
        480,
        364,
        19,
        188,
        102,
        77,
        99,
        457,
        80,
        45,
        62,
        393,
        467,
        417,
        370,
        52,
        197,
        452,
        63,
        35,
        219,
        222,
        448,
        240,
        464,
        12,
        258,
        86,
        136,
        291,
        412,
        462,
        350,
        16,
        491,
        494,
        363,
        212,
        468,
        210,
        84,
        20,
        61,
        218,
        177,
        144,
        346,
        11,
        416,
        453,
        220,
        97,
        259,
        233,
        64,
        79,
        138,
        449,
        200,
        175,
        383,
        250,
        371,
        192,
        309,
        110,
        368,
        73,
        101,
        150,
        367,
        27,
        303,
        400,
        375,
        488,
        123,
        131,
        65,
        425,
        477,
        106,
        437,
        490,
        289,
        147,
        377,
        484,
        154,
        264,
        496,
        83,
        234,
        381,
        183,
        15,
        13,
        307,
        487,
        94,
        398,
        239,
        149,
        235,
        0,
        402,
        253,
        95,
        419,
        257,
        302,
        202,
        308,
        247,
        213,
        265,
        14,
        359,
        59,
        280,
        214,
        249,
        184,
        49,
        117,
        423,
        17,
        450,
        411,
        345,
        353,
        272,
        232,
        41,
        216,
        403,
        483,
        391,
        497,
        203,
        296,
        5,
        157,
        46,
        120,
        317,
        82,
        382,
        434,
        39,
        486,
        254,
        187,
        166,
        438,
        112,
        362,
        37,
        241,
        167,
        98,
        26,
        104,
        129,
        441,
        343,
        127,
        1,
        194,
        399,
        392,
        72,
        244,
        75,
        335,
        476,
        140,
        18,
        199,
        182,
        42,
        263
    ],
    "Global Optimum": 0,
    "Algorithm": "Genetic algorithm",
    "Parameters": {
        "population": 30,
        "offspring": 30,
        "mutation probability": 0.002,
        "crossover probability": 0.9
    },
    "Fitness": 598910,
    "Solution": [
        172,
        306,
        225,
        78,
        445,
        340,
        320,
        312,
        297,
        195,
        51,
        115,
        142,
        68,
        407,
        206,
        186,
        81,
        499,
        9,
        164,
        207,
        113,
        270,
        22,
        170,
        472,
        479,
        109,
        21,
        163,
        119,
        316,
        287,
        471,
        349,
        369,
        156,
        295,
        326,
        361,
        246,
        430,
        47,
        315,
        159,
        352,
        351,
        481,
        446,
        57,
        380,
        215,
        176,
        493,
        100,
        221,
        152,
        366,
        158,
        489,
        394,
        132,
        440,
        284,
        314,
        53,
        338,
        262,
        332,
        208,
        141,
        390,
        93,
        418,
        134,
        360,
        126,
        201,
        432,
        387,
        358,
        414,
        24,
        282,
        281,
        318,
        96,
        128,
        278,
        424,
        169,
        342,
        66,
        189,
        413,
        108,
        91,
        6,
        299,
        3,
        198,
        323,
        173,
        293,
        443,
        160,
        231,
        444,
        339,
        32,
        301,
        455,
        178,
        347,
        334,
        67,
        372,
        300,
        107,
        165,
        374,
        174,
        267,
        30,
        205,
        396,
        427,
        33,
        145,
        185,
        466,
        193,
        58,
        271,
        8,
        54,
        276,
        229,
        379,
        256,
        181,
        304,
        139,
        238,
        125,
        292,
        252,
        89,
        269,
        204,
        286,
        337,
        111,
        44,
        122,
        474,
        55,
        460,
        348,
        388,
        40,
        408,
        34,
        76,
        105,
        161,
        478,
        209,
        373,
        336,
        87,
        492,
        385,
        230,
        2,
        405,
        191,
        321,
        327,
        409,
        305,
        482,
        341,
        310,
        179,
        38,
        473,
        90,
        137,
        48,
        436,
        226,
        395,
        311,
        56,
        384,
        365,
        124,
        463,
        248,
        118,
        260,
        224,
        328,
        168,
        410,
        431,
        10,
        92,
        313,
        469,
        143,
        461,
        275,
        71,
        227,
        290,
        190,
        397,
        475,
        458,
        344,
        162,
        242,
        23,
        322,
        236,
        330,
        251,
        29,
        325,
        389,
        428,
        36,
        356,
        43,
        243,
        498,
        422,
        378,
        135,
        121,
        324,
        404,
        155,
        88,
        116,
        196,
        217,
        28,
        180,
        223,
        211,
        465,
        25,
        151,
        435,
        421,
        7,
        357,
        74,
        255,
        146,
        261,
        386,
        426,
        485,
        245,
        447,
        130,
        451,
        228,
        266,
        237,
        401,
        50,
        85,
        31,
        415,
        298,
        69,
        376,
        319,
        442,
        133,
        273,
        288,
        456,
        274,
        60,
        268,
        459,
        329,
        495,
        420,
        285,
        439,
        70,
        454,
        470,
        433,
        103,
        153,
        406,
        114,
        148,
        283,
        355,
        429,
        171,
        277,
        354,
        4,
        333,
        331,
        294,
        279,
        480,
        364,
        19,
        188,
        102,
        77,
        99,
        457,
        80,
        45,
        62,
        393,
        467,
        417,
        370,
        52,
        197,
        452,
        63,
        35,
        219,
        222,
        448,
        240,
        464,
        12,
        258,
        86,
        136,
        291,
        412,
        462,
        350,
        16,
        491,
        494,
        363,
        212,
        468,
        210,
        84,
        20,
        61,
        218,
        177,
        144,
        346,
        11,
        416,
        453,
        220,
        97,
        259,
        233,
        64,
        79,
        138,
        449,
        200,
        175,
        383,
        250,
        371,
        192,
        309,
        110,
        368,
        73,
        101,
        150,
        367,
        27,
        303,
        400,
        375,
        488,
        123,
        131,
        65,
        425,
        477,
        106,
        437,
        490,
        289,
        147,
        377,
        484,
        154,
        264,
        496,
        83,
        234,
        381,
        183,
        15,
        13,
        307,
        487,
        94,
        398,
        239,
        149,
        235,
        0,
        402,
        253,
        95,
        419,
        257,
        302,
        202,
        308,
        247,
        213,
        265,
        14,
        359,
        59,
        280,
        214,
        249,
        184,
        49,
        117,
        423,
        17,
        450,
        411,
        345,
        353,
        272,
        232,
        41,
        216,
        403,
        483,
        391,
        497,
        203,
        296,
        5,
        157,
        46,
        120,
        317,
        82,
        382,
        434,
        39,
        486,
        254,
        187,
        166,
        438,
        112,
        362,
        37,
        241,
        167,
        98,
        26,
        104,
        129,
        441,
        343,
        127,
        1,
        194,
        399,
        392,
        72,
        244,
        75,
        335,
        476,
        140,
        18,
        199,
        182,
        42,
        263
    ],
    "Nb of functions evaluations": 200010,
    "Computational time in seconds": 841.50532746315,
    "Stopping criterion in evaluations": 200000
}